mixintcount/benchmarks/random_v2l/6_6_316.in
24 8
#	x1	x2	x3	x4	x5	x6;		0 = Real; 1 = Integer
	1	1	1	1	1	1
1	10	-8	-5	-6	9	-4	69
1	1	-5	9	10	5	7	-117
1	4	-6	-1	-4	5	-6	-6
1	9	-8	-2	7	10	5	150
1	-6	1	4	-7	3	10	269
1	-1	-7	0	-10	-4	-2	-258
1	-10	-7	10	2	-3	-4	-188
1	-9	-2	3	-10	-2	-10	109
1	-3	5	10	1	-7	3	-187
1	5	2	8	-7	3	-3	87
1	9	4	-9	8	7	9	74
1	-7	-6	-7	-5	2	6	-64
1	1	0	0	0	0	0	316
1	-1	0	0	0	0	0	316
1	0	1	0	0	0	0	316
1	0	-1	0	0	0	0	316
1	0	0	1	0	0	0	316
1	0	0	-1	0	0	0	316
1	0	0	0	1	0	0	316
1	0	0	0	-1	0	0	316
1	0	0	0	0	1	0	316
1	0	0	0	0	-1	0	316
1	0	0	0	0	0	1	316
1	0	0	0	0	0	-1	316
